outputs/case_75.model.txt
capital_adequacy_ratio = 180
capital_level_4_remedial_completed = False
financial_business_improvement_approved = False
financial_business_deterioration_unimproved = False
net_worth_ratio = 5/2
customer_age_over_65 = True
financial_business_deterioration_accelerated = False
net_worth = 100
risk_level = 0
sales_process_recorded = False
business_conduct_executed = False
risk_assessment_completed = False
sales_process_reviewed = False
internal_control_executed = True
report_content_truthful = True
internal_handling_established = True
internal_handling_executed = True
reported_to_authority_on_time = True
explanation_document_compliant = True
public_explanation_made = True
internal_control_established = True
violate_148_1_2_flag = False
explanation_document_provided = True
explanation_document_truthful = True
investment_product_sales_recorded = False
internal_control_and_audit_ok = True
capital_level_4_noncompliance = False
violate_148_3_2 = False
capital_level_2_3_deterioration = False
internal_handling_ok = True
capital_level = 2
business_conduct_compliance = False
compliance_internal_control_and_handling = True
penalty_171_1 = False
penalty = False
violate_148_2_2 = False
violate_148_2_1 = False
violate_148_1_2 = False
violate_148_3_1 = False
investment_product_risk_assessed = False
supervision_measures_required = False